units       real
dimension   3
atom_style  bond
boundary    p p p




bond_style      harmonic

neigh_modify    delay 0 every 1 check yes

reset_timestep 0
min_style cg




thermo      1000

run         50000
