units real
atom_style atomic
boundary p p p
